300
75 75
1 52 377
2 52 531
3 52 407
4 52 814
5 52 520
6 52 888
7 52 137
8 52 506
9 52 132
10 52 261
11 51 445
12 51 248
13 51 502
14 51 468
15 51 401
16 51 469
17 51 476
18 50 497
19 50 464
20 50 353
21 50 674
22 50 972
23 50 72
24 50 59
25 49 737
26 49 98
27 49 755
28 49 290
29 49 612
30 48 537
31 48 592
32 48 329
33 48 340
34 48 598
35 48 987
36 48 722
37 47 401
38 47 873
39 47 865
40 47 187
41 47 408
42 47 754
43 47 999
44 47 873
45 46 674
46 46 527
47 46 866
48 46 255
49 46 828
50 46 885
51 46 727
52 46 258
53 45 470
54 45 110
55 45 657
56 45 370
57 45 403
58 45 147
59 45 201
60 45 848
61 45 749
62 45 866
63 45 809
64 45 784
65 45 347
66 45 668
67 44 118
68 44 239
69 44 514
70 44 54
71 44 525
72 44 896
73 44 953
74 44 369
75 44 78
76 43 392
77 43 496
78 43 920
79 43 844
80 43 300
81 43 851
82 42 251
83 42 422
84 42 493
85 42 549
86 42 332
87 42 800
88 42 624
89 41 151
90 41 773
91 41 952
92 41 487
93 41 989
94 41 38
95 41 809
96 41 96
97 41 650
98 41 853
99 40 13
100 40 449
101 40 330
102 40 187
103 39 378
104 39 479
105 39 551
106 39 643
107 39 41
108 39 637
109 39 839
110 38 7
111 38 316
112 38 276
113 38 745
114 38 190
115 38 690
116 38 634
117 38 577
118 37 774
119 37 298
120 37 899
121 37 16
122 37 430
123 37 209
124 37 763
125 37 782
126 37 68
127 36 821
128 36 382
129 36 412
130 36 711
131 36 925
132 36 157
133 36 953
134 35 373
135 35 568
136 35 576
137 35 280
138 35 330
139 35 220
140 35 461
141 35 861
142 35 123
143 35 842
144 35 887
145 34 675
146 34 798
147 34 481
148 34 310
149 34 981
150 34 554
151 33 322
152 33 1
153 33 196
154 32 91
155 32 182
156 32 908
157 32 898
158 32 835
159 32 407
160 32 78
161 32 996
162 32 519
163 32 537
164 31 355
165 31 494
166 31 384
167 31 69
168 31 880
169 31 828
170 31 295
171 31 24
172 31 620
173 31 319
174 31 991
175 30 742
176 30 36
177 30 202
178 30 161
179 30 615
180 29 933
181 29 612
182 29 66
183 29 366
184 29 122
185 29 446
186 29 574
187 28 902
188 28 444
189 28 504
190 28 233
191 28 872
192 28 735
193 28 427
194 28 3
195 28 623
196 28 281
197 28 963
198 27 572
199 27 606
200 27 652
201 27 120
202 27 415
203 27 426
204 27 933
205 27 305
206 27 528
207 26 948
208 26 604
209 26 972
210 26 721
211 26 681
212 26 746
213 26 100
214 26 843
215 25 887
216 25 214
217 25 557
218 25 937
219 25 254
220 25 213
221 25 184
222 25 774
223 25 70
224 25 768
225 25 49
226 25 57
227 25 742
228 24 713
229 24 246
230 24 73
231 23 839
232 23 151
233 23 38
234 23 607
235 23 601
236 22 404
237 22 154
238 22 715
239 22 60
240 22 858
241 22 159
242 22 521
243 22 630
244 22 150
245 22 707
246 22 924
247 21 736
248 21 198
249 21 249
250 21 133
251 21 674
252 21 379
253 21 508
254 21 431
255 21 109
256 20 70
257 20 414
258 19 195
259 19 934
260 19 571
261 19 142
262 19 874
263 19 153
264 19 883
265 19 546
266 19 291
267 19 397
268 19 592
269 18 999
270 18 151
271 18 426
272 18 481
273 18 968
274 18 230
275 18 783
276 18 571
277 18 544
278 18 905
279 17 454
280 17 509
281 17 651
282 17 211
283 17 493
284 17 185
285 17 584
286 17 502
287 16 389
288 16 292
289 16 118
290 16 511
291 16 453
292 16 103
293 16 847
294 15 403
295 15 163
296 15 395
297 15 740
298 15 136
299 15 284
300 15 372
